# Solution for model GasLib-40
# Objective value = 1.0456567770621179e+01
loadshed[innode_1] 0
loadshed[innode_2] 0
loadshed[innode_3] 0
loadshed[innode_4] 0
loadshed[innode_5] 0
loadshed[innode_6] 0
loadshed[innode_7] 0
loadshed[innode_8] 0
loadshed[source_1] -2.9469965013710508e-01
loadshed[source_2] 1.0722452654191561e-01
loadshed[source_3] 2.5361813958316493e-01
loadshed[sink_1] 0
loadshed[sink_2] 0
loadshed[sink_3] 0
loadshed[sink_4] 0
loadshed[sink_5] 0
loadshed[sink_6] 0
loadshed[sink_7] 0
loadshed[sink_8] 0
loadshed[sink_9] 0
loadshed[sink_10] 0
loadshed[sink_11] 0
loadshed[sink_12] 6.3938248788511665e-01
loadshed[sink_13] 0
loadshed[sink_14] 0
loadshed[sink_15] 0
loadshed[sink_16] 0
loadshed[sink_17] 0
loadshed[sink_18] 0
loadshed[sink_19] 0
loadshed[sink_20] 0
loadshed[sink_21] 0
loadshed[sink_22] 0
loadshed[sink_23] 0
loadshed[sink_24] 0
loadshed[sink_25] 0
loadshed[sink_26] 0
loadshed[sink_27] 0
loadshed[sink_28] 0
loadshed[sink_29] 0
flow[source_1,sink_3] 2.0467942732896665e+02
flow[innode_1,sink_16] 1.6354166666666970e+01
flow[innode_6,sink_13] -3.5165489749250369e+00
flow[sink_13,sink_14] -1.9870715641591705e+01
flow[sink_14,sink_10] -3.6224882308258373e+01
flow[sink_25,sink_26] 1.7163593149433819e+02
flow[sink_26,sink_9] 1.2189468711283415e+02
flow[sink_9,sink_18] 1.0554052044616748e+02
flow[sink_26,sink_4] 3.3387077714837389e+01
flow[sink_4,sink_20] -1.7197416772489639e+01
flow[sink_18,sink_6] 89.1863537795008
flow[sink_25,innode_8] -1.7197109399563030e+02
flow[sink_6,sink_7] 4.0123853779500678e+01
flow[sink_6,sink_22] 3.2708333333333641e+01
flow[sink_7,sink_24] 3.8605932229378823e+01
flow[sink_22,sink_1] 1.6354166666666970e+01
flow[sink_24,sink_21] 2.2251765562712155e+01
flow[sink_21,sink_12] 5.8975988960454879e+00
flow[sink_7,sink_5] -1.4836245116544802e+01
flow[sink_5,sink_17] -3.1190411783211289e+01
flow[sink_17,sink_4] -3.4230327820660364e+01
flow[sink_17,sink_8] -1.3314250629217630e+01
flow[sink_3,sink_23] 16.3541666666697
flow[sink_8,sink_20] -2.9668417295884296e+01
flow[sink_25,sink_20] 6.3220000735040514e+01
flow[sink_25,sink_15] -7.5722455925489911e+01
flow[sink_15,sink_29] -1.0843078925884083e+02
flow[sink_29,sink_28] 1.6354166666667879e+01
flow[sink_29,sink_2] 0
flow[sink_2,sink_15] -1.6354166666684250e+01
flow[sink_29,innode_7] -1.4113912259217562e+02
flow[innode_4,sink_19] 0
flow[sink_19,innode_3] 4.1619882568585226e+01
flow[innode_4,innode_5] 1.1799571564159201e+02
flow[sink_27,innode_5] -1.1799571564159201e+02
flow[sink_27,sink_19] 1.0164154897492534e+02
flow[sink_10,sink_11] 3.2708333333333641e+01
flow[sink_10,innode_2] -4.3667499739673453e+01
flow[sink_10,innode_3] -4.1619882568585226e+01
flow[innode_6,sink_25] 3.5165489749250369e+00
flow[sink_11,innode_1] 1.6354166666666970e+01
flow[sink_19,innode_2] 4.3667499739673453e+01
flow[source_3,innode_4] 1.1799571564159201e+02
flow[source_2,innode_7] 1.4113912259217562e+02
flow[sink_3,innode_8] 1.7197109399563030e+02
pressure[innode_1] 7.5310949308291939e+01
pressure[innode_2] 7.7770658329817920e+01
pressure[innode_3] 7.7678495812810212e+01
pressure[innode_4] 81.01325
pressure[innode_5] 8.0932086324848356e+01
pressure[innode_6] 7.3694318062658255e+01
pressure[innode_7] 81.01325
pressure[innode_8] 8.0329084864814590e+01
pressure[source_1] 81.01325
pressure[source_2] 81.01325
pressure[source_3] 81.01325
pressure[sink_1] 4.6008999184910088e+01
pressure[sink_2] 7.4008253009744863e+01
pressure[sink_3] 8.0329084864814590e+01
pressure[sink_4] 5.7361180733425840e+01
pressure[sink_5] 5.3729550248059766e+01
pressure[sink_6] 4.8110076795297459e+01
pressure[sink_7] 4.7559271923696969e+01
pressure[sink_8] 5.6555391740950142e+01
pressure[sink_9] 5.4310388578474438e+01
pressure[sink_10] 7.5462650615895484e+01
pressure[sink_11] 7.5310949308291939e+01
pressure[sink_12] 1.0132500000000002e+00
pressure[sink_13] 7.3713704209487091e+01
pressure[sink_14] 7.3749264547738434e+01
pressure[sink_15] 7.4061645759511308e+01
pressure[sink_16] 7.4289299473474259e+01
pressure[sink_17] 5.6053010475137192e+01
pressure[sink_18] 5.0491617983882072e+01
pressure[sink_19] 7.7770658329817920e+01
pressure[sink_20] 5.8622863191479468e+01
pressure[sink_21] 3.1119384640578511e+00
pressure[sink_22] 4.7072768327265095e+01
pressure[sink_23] 80.1643668531548
pressure[sink_24] 3.3583560933090086e+00
pressure[sink_25] 7.3694318062658255e+01
pressure[sink_26] 6.1606100203704855e+01
pressure[sink_27] 7.9952939917661908e+01
pressure[sink_28] 7.6943049108919638e+01
pressure[sink_29] 7.7238331382536813e+01
interdiction[source_1,sink_3] 0
interdiction[innode_1,sink_16] 0
interdiction[innode_6,sink_13] 0
interdiction[sink_13,sink_14] 0
interdiction[sink_14,sink_10] 0
interdiction[sink_25,sink_26] 0
interdiction[sink_26,sink_9] 0
interdiction[sink_9,sink_18] 0
interdiction[sink_26,sink_4] 0
interdiction[sink_4,sink_20] 0
interdiction[sink_18,sink_6] 0
interdiction[sink_25,innode_8] 0
interdiction[sink_6,sink_7] 0
interdiction[sink_6,sink_22] 0
interdiction[sink_7,sink_24] 0
interdiction[sink_22,sink_1] 0
interdiction[sink_24,sink_21] 0
interdiction[sink_21,sink_12] 0
interdiction[sink_7,sink_5] 0
interdiction[sink_5,sink_17] 0
interdiction[sink_17,sink_4] 0
interdiction[sink_17,sink_8] 0
interdiction[sink_3,sink_23] 0
interdiction[sink_8,sink_20] 0
interdiction[sink_25,sink_20] 0
interdiction[sink_25,sink_15] 0
interdiction[sink_15,sink_29] 0
interdiction[sink_29,sink_28] 0
interdiction[sink_29,sink_2] 1
interdiction[sink_2,sink_15] 0
interdiction[sink_29,innode_7] 0
interdiction[innode_4,sink_19] 1
interdiction[sink_19,innode_3] 0
interdiction[innode_4,innode_5] 0
interdiction[sink_27,innode_5] 0
interdiction[sink_27,sink_19] 0
interdiction[sink_10,sink_11] 0
interdiction[sink_10,innode_2] 0
interdiction[sink_10,innode_3] 0
interdiction[innode_6,sink_25] 0
interdiction[sink_11,innode_1] 0
interdiction[sink_19,innode_2] 0
interdiction[source_3,innode_4] 0
interdiction[source_2,innode_7] 0
interdiction[sink_3,innode_8] 0
WCcheckFlow[source_1,sink_3] 39
WCcheckFlow[innode_1,sink_16] 1
WCcheckFlow[innode_6,sink_13] 13
WCcheckFlow[sink_13,sink_14] 12
WCcheckFlow[sink_14,sink_10] 11
WCcheckFlow[sink_25,sink_26] 15
WCcheckFlow[sink_26,sink_9] 12
WCcheckFlow[sink_9,sink_18] 11
WCcheckFlow[sink_26,sink_4] 2
WCcheckFlow[sink_4,sink_20] 1
WCcheckFlow[sink_18,sink_6] 10
WCcheckFlow[sink_25,innode_8] -36
WCcheckFlow[sink_6,sink_7] 7
WCcheckFlow[sink_6,sink_22] 2
WCcheckFlow[sink_7,sink_24] 3
WCcheckFlow[sink_22,sink_1] 1
WCcheckFlow[sink_24,sink_21] 2
WCcheckFlow[sink_21,sink_12] 1
WCcheckFlow[sink_7,sink_5] 3
WCcheckFlow[sink_5,sink_17] 2
WCcheckFlow[sink_17,sink_4] 0
WCcheckFlow[sink_17,sink_8] 1
WCcheckFlow[sink_3,sink_23] 1
WCcheckFlow[sink_8,sink_20] 0
WCcheckFlow[sink_25,sink_20] 0
WCcheckFlow[sink_25,sink_15] 6
WCcheckFlow[sink_15,sink_29] 4
WCcheckFlow[sink_29,sink_28] 1
WCcheckFlow[sink_29,sink_2] 0
WCcheckFlow[sink_2,sink_15] -1
WCcheckFlow[sink_29,innode_7] 2
WCcheckFlow[innode_4,sink_19] 0
WCcheckFlow[sink_19,innode_3] -5
WCcheckFlow[innode_4,innode_5] -2
WCcheckFlow[sink_27,innode_5] 3
WCcheckFlow[sink_27,sink_19] -4
WCcheckFlow[sink_10,sink_11] 3
WCcheckFlow[sink_10,innode_2] 1
WCcheckFlow[sink_10,innode_3] 6
WCcheckFlow[innode_6,sink_25] -14
WCcheckFlow[sink_11,innode_1] 2
WCcheckFlow[sink_19,innode_2] 0
WCcheckFlow[source_3,innode_4] -1
WCcheckFlow[source_2,innode_7] -1
WCcheckFlow[sink_3,innode_8] 37
